benchmarks_CP/INST_64x64/50/inst64x64_50_77.dzn
S=8;
start=[|
-1,	-1,	58,	-1,	20,	14,	-1,	-1,	64,	-1,	-1,	63,	42,	61,	-1,	-1,	-1,	-1,	-1,	-1,	46,	23,	18,	-1,	38,	47,	-1,	-1,	-1,	54,	-1,	57,	35,	43,	55,	-1,	-1,	-1,	34,	10,	22,	6,	15,	-1,	21,	-1,	1,	39,	-1,	-1,	12,	51,	49,	-1,	-1,	9,	-1,	33,	41,	36,	32,	31,	28,	25|
-1,	49,	25,	-1,	7,	-1,	23,	32,	-1,	-1,	21,	14,	-1,	-1,	-1,	43,	-1,	26,	-1,	28,	39,	-1,	-1,	-1,	9,	-1,	-1,	-1,	-1,	42,	11,	6,	-1,	-1,	40,	-1,	41,	59,	-1,	24,	53,	16,	44,	-1,	58,	2,	-1,	62,	-1,	-1,	13,	17,	55,	47,	64,	-1,	5,	-1,	-1,	-1,	-1,	-1,	-1,	35|
-1,	-1,	35,	-1,	62,	-1,	56,	28,	-1,	-1,	58,	-1,	26,	22,	-1,	41,	-1,	30,	25,	29,	38,	60,	48,	11,	-1,	-1,	-1,	-1,	-1,	-1,	-1,	-1,	32,	-1,	15,	-1,	-1,	33,	-1,	46,	17,	61,	-1,	49,	-1,	18,	-1,	-1,	-1,	-1,	-1,	20,	10,	-1,	-1,	-1,	44,	-1,	1,	-1,	-1,	24,	-1,	-1|
64,	16,	-1,	52,	59,	-1,	11,	42,	38,	8,	-1,	30,	-1,	-1,	49,	4,	43,	31,	17,	-1,	-1,	15,	10,	14,	61,	-1,	-1,	-1,	-1,	-1,	53,	-1,	36,	3,	25,	-1,	1,	-1,	57,	6,	-1,	-1,	47,	-1,	29,	-1,	26,	-1,	40,	-1,	-1,	-1,	-1,	22,	27,	-1,	-1,	-1,	-1,	-1,	45,	51,	-1,	-1|
-1,	10,	-1,	-1,	55,	57,	21,	-1,	51,	-1,	11,	36,	-1,	-1,	19,	-1,	-1,	-1,	6,	-1,	-1,	27,	47,	59,	-1,	39,	-1,	58,	-1,	18,	5,	-1,	-1,	-1,	-1,	50,	-1,	49,	20,	54,	28,	-1,	33,	-1,	-1,	-1,	52,	-1,	-1,	31,	-1,	41,	14,	2,	35,	-1,	-1,	-1,	26,	61,	-1,	-1,	23,	-1|
63,	-1,	-1,	-1,	44,	8,	-1,	30,	-1,	-1,	57,	47,	-1,	24,	50,	-1,	-1,	-1,	1,	9,	53,	41,	7,	54,	-1,	-1,	43,	22,	21,	-1,	32,	33,	2,	-1,	-1,	27,	-1,	-1,	-1,	62,	14,	-1,	64,	-1,	11,	34,	-1,	31,	-1,	23,	48,	-1,	37,	-1,	46,	-1,	13,	59,	55,	19,	-1,	16,	38,	-1|
36,	-1,	39,	46,	22,	41,	-1,	-1,	40,	3,	55,	48,	-1,	-1,	31,	62,	-1,	-1,	-1,	-1,	-1,	35,	42,	5,	-1,	-1,	-1,	-1,	-1,	2,	-1,	-1,	-1,	64,	16,	-1,	-1,	-1,	14,	-1,	-1,	-1,	-1,	51,	24,	-1,	7,	-1,	29,	-1,	-1,	60,	-1,	1,	-1,	19,	-1,	47,	4,	-1,	-1,	49,	10,	-1|
48,	-1,	-1,	31,	-1,	4,	-1,	29,	7,	1,	-1,	12,	-1,	44,	-1,	2,	-1,	52,	19,	-1,	-1,	34,	55,	-1,	-1,	3,	13,	41,	-1,	-1,	-1,	-1,	-1,	47,	-1,	-1,	42,	17,	-1,	9,	57,	59,	27,	56,	46,	23,	-1,	-1,	-1,	16,	26,	62,	38,	5,	15,	-1,	43,	54,	-1,	37,	14,	-1,	50,	40|
-1,	-1,	-1,	-1,	-1,	64,	-1,	11,	-1,	62,	14,	41,	4,	-1,	39,	30,	12,	-1,	32,	-1,	-1,	43,	15,	60,	28,	49,	-1,	5,	19,	-1,	-1,	47,	-1,	33,	1,	6,	-1,	-1,	-1,	-1,	25,	-1,	20,	-1,	40,	53,	-1,	61,	59,	-1,	-1,	29,	17,	58,	-1,	-1,	-1,	63,	38,	9,	48,	2,	42,	-1|
-1,	36,	-1,	-1,	-1,	12,	14,	34,	15,	-1,	17,	35,	-1,	-1,	-1,	-1,	-1,	-1,	-1,	54,	-1,	-1,	-1,	-1,	13,	32,	26,	9,	51,	-1,	61,	41,	28,	60,	8,	48,	-1,	-1,	-1,	-1,	50,	-1,	58,	10,	-1,	7,	-1,	55,	-1,	43,	62,	-1,	-1,	19,	-1,	-1,	-1,	-1,	49,	-1,	-1,	-1,	44,	-1|
-1,	-1,	29,	62,	47,	-1,	42,	-1,	52,	-1,	33,	-1,	-1,	-1,	25,	-1,	-1,	39,	37,	51,	8,	-1,	-1,	61,	-1,	12,	46,	-1,	30,	1,	15,	-1,	-1,	10,	-1,	36,	-1,	34,	18,	-1,	41,	-1,	26,	9,	44,	38,	-1,	-1,	20,	60,	-1,	14,	2,	55,	-1,	-1,	4,	64,	40,	-1,	5,	32,	-1,	13|
25,	-1,	55,	-1,	2,	52,	-1,	41,	22,	63,	-1,	-1,	-1,	-1,	36,	51,	-1,	34,	-1,	49,	40,	20,	14,	4,	-1,	-1,	18,	57,	-1,	-1,	50,	-1,	-1,	-1,	-1,	35,	-1,	-1,	11,	-1,	-1,	-1,	12,	-1,	-1,	42,	-1,	-1,	-1,	48,	45,	6,	-1,	8,	-1,	23,	-1,	43,	-1,	21,	31,	15,	-1,	59|
35,	40,	1,	-1,	-1,	-1,	54,	-1,	-1,	-1,	20,	-1,	53,	55,	64,	58,	-1,	-1,	59,	26,	-1,	-1,	-1,	-1,	42,	45,	-1,	-1,	43,	-1,	4,	-1,	19,	49,	44,	41,	12,	-1,	-1,	-1,	-1,	15,	-1,	-1,	33,	52,	-1,	-1,	-1,	30,	27,	-1,	51,	-1,	39,	-1,	-1,	7,	14,	23,	-1,	61,	-1,	-1|
31,	-1,	-1,	-1,	38,	28,	48,	-1,	57,	-1,	1,	-1,	56,	26,	42,	8,	-1,	53,	2,	18,	-1,	-1,	45,	10,	-1,	60,	63,	-1,	11,	-1,	24,	52,	-1,	13,	-1,	-1,	-1,	61,	30,	-1,	-1,	-1,	-1,	-1,	32,	-1,	39,	14,	-1,	35,	-1,	-1,	5,	12,	-1,	-1,	-1,	51,	-1,	58,	47,	-1,	-1,	-1|
15,	-1,	-1,	-1,	17,	32,	-1,	-1,	-1,	-1,	-1,	37,	-1,	12,	-1,	10,	33,	58,	-1,	-1,	-1,	-1,	-1,	38,	-1,	27,	29,	56,	39,	-1,	-1,	-1,	-1,	14,	42,	40,	-1,	-1,	9,	-1,	-1,	4,	-1,	-1,	48,	-1,	-1,	1,	-1,	61,	47,	53,	-1,	26,	-1,	31,	-1,	8,	28,	-1,	11,	-1,	-1,	46|
-1,	-1,	-1,	-1,	27,	58,	4,	-1,	-1,	-1,	-1,	-1,	61,	-1,	48,	9,	11,	55,	36,	-1,	-1,	-1,	-1,	42,	-1,	-1,	40,	-1,	-1,	7,	6,	17,	31,	23,	-1,	-1,	-1,	-1,	25,	-1,	-1,	-1,	54,	47,	-1,	59,	5,	51,	41,	64,	-1,	-1,	-1,	32,	52,	15,	-1,	56,	22,	34,	-1,	39,	-1,	-1|
-1,	-1,	-1,	42,	36,	-1,	20,	-1,	56,	30,	61,	-1,	35,	32,	13,	3,	7,	37,	-1,	59,	62,	-1,	49,	-1,	-1,	-1,	4,	-1,	18,	-1,	-1,	19,	-1,	-1,	45,	-1,	24,	51,	-1,	-1,	-1,	53,	-1,	27,	16,	-1,	-1,	-1,	-1,	6,	54,	12,	-1,	10,	-1,	-1,	-1,	-1,	-1,	28,	-1,	38,	-1,	52|
9,	-1,	-1,	44,	28,	33,	19,	6,	63,	-1,	53,	18,	-1,	17,	-1,	40,	27,	43,	-1,	-1,	21,	39,	-1,	-1,	26,	-1,	-1,	-1,	-1,	-1,	-1,	11,	30,	-1,	41,	34,	13,	-1,	60,	48,	-1,	-1,	55,	15,	-1,	29,	59,	-1,	-1,	-1,	-1,	-1,	23,	-1,	31,	16,	42,	35,	-1,	25,	-1,	-1,	-1,	51|
-1,	-1,	-1,	63,	16,	43,	64,	-1,	10,	-1,	24,	21,	-1,	-1,	-1,	31,	54,	-1,	-1,	-1,	32,	-1,	51,	-1,	6,	-1,	-1,	-1,	-1,	-1,	25,	-1,	1,	39,	23,	-1,	-1,	-1,	44,	52,	-1,	30,	37,	-1,	-1,	13,	-1,	58,	-1,	-1,	-1,	47,	-1,	-1,	22,	35,	50,	-1,	-1,	8,	-1,	-1,	55,	34|
5,	-1,	45,	4,	-1,	-1,	22,	-1,	-1,	6,	-1,	52,	-1,	-1,	34,	-1,	25,	57,	-1,	19,	-1,	-1,	36,	-1,	29,	-1,	64,	-1,	61,	49,	9,	23,	-1,	-1,	-1,	-1,	-1,	53,	62,	-1,	40,	-1,	38,	26,	43,	-1,	12,	-1,	-1,	-1,	24,	-1,	-1,	-1,	14,	1,	-1,	15,	-1,	2,	54,	63,	-1,	-1|
56,	-1,	51,	-1,	-1,	-1,	-1,	-1,	-1,	-1,	-1,	-1,	36,	62,	44,	-1,	-1,	-1,	40,	-1,	-1,	16,	58,	-1,	-1,	15,	-1,	7,	-1,	30,	-1,	-1,	-1,	42,	11,	3,	35,	43,	-1,	-1,	54,	-1,	-1,	-1,	14,	21,	64,	-1,	-1,	17,	37,	32,	-1,	-1,	60,	20,	29,	45,	-1,	27,	46,	48,	-1,	-1|
14,	54,	2,	-1,	-1,	49,	-1,	-1,	58,	48,	22,	7,	-1,	8,	20,	-1,	-1,	-1,	35,	-1,	-1,	53,	-1,	-1,	-1,	41,	34,	-1,	-1,	-1,	-1,	-1,	-1,	26,	59,	57,	61,	-1,	-1,	33,	63,	51,	-1,	24,	-1,	-1,	9,	46,	19,	-1,	-1,	-1,	-1,	52,	29,	-1,	64,	-1,	-1,	-1,	-1,	-1,	-1,	-1|
-1,	-1,	-1,	-1,	-1,	34,	-1,	31,	29,	-1,	9,	5,	-1,	39,	-1,	55,	50,	-1,	-1,	-1,	56,	61,	8,	-1,	52,	-1,	-1,	-1,	53,	-1,	59,	-1,	-1,	-1,	38,	14,	19,	-1,	10,	-1,	-1,	-1,	28,	-1,	-1,	45,	-1,	6,	-1,	-1,	-1,	-1,	-1,	-1,	-1,	-1,	-1,	-1,	23,	-1,	44,	-1,	49,	-1|
46,	30,	15,	32,	18,	50,	35,	-1,	16,	37,	-1,	-1,	-1,	-1,	-1,	-1,	-1,	-1,	64,	-1,	-1,	-1,	-1,	24,	17,	-1,	-1,	-1,	36,	13,	47,	-1,	29,	55,	49,	-1,	-1,	-1,	-1,	56,	62,	1,	-1,	23,	-1,	-1,	48,	20,	-1,	-1,	-1,	9,	61,	-1,	-1,	51,	60,	-1,	-1,	-1,	-1,	53,	-1,	-1|
62,	-1,	-1,	-1,	-1,	47,	-1,	-1,	13,	-1,	15,	-1,	-1,	30,	41,	18,	8,	-1,	44,	36,	29,	40,	20,	64,	14,	28,	-1,	27,	-1,	-1,	38,	53,	6,	-1,	-1,	61,	45,	-1,	-1,	-1,	26,	-1,	-1,	-1,	19,	-1,	50,	43,	-1,	-1,	56,	33,	39,	-1,	4,	-1,	1,	-1,	-1,	10,	52,	54,	25,	-1|
-1,	29,	-1,	8,	10,	11,	55,	5,	48,	4,	25,	3,	-1,	52,	-1,	-1,	23,	17,	-1,	-1,	-1,	-1,	-1,	-1,	-1,	6,	47,	26,	16,	-1,	-1,	-1,	20,	-1,	-1,	-1,	49,	41,	-1,	-1,	-1,	-1,	51,	-1,	-1,	28,	45,	-1,	61,	-1,	-1,	-1,	54,	7,	32,	57,	33,	-1,	18,	44,	64,	-1,	-1,	36|
42,	25,	-1,	37,	-1,	-1,	50,	64,	6,	-1,	-1,	45,	-1,	20,	56,	61,	48,	21,	33,	-1,	41,	-1,	60,	-1,	-1,	46,	-1,	39,	-1,	29,	-1,	-1,	23,	-1,	-1,	-1,	-1,	12,	-1,	-1,	-1,	36,	22,	16,	-1,	63,	14,	-1,	3,	55,	59,	49,	43,	17,	-1,	58,	19,	-1,	27,	7,	2,	-1,	34,	-1|
-1,	-1,	9,	-1,	31,	56,	-1,	53,	-1,	35,	23,	-1,	22,	-1,	-1,	37,	-1,	7,	26,	55,	30,	50,	19,	32,	21,	-1,	-1,	15,	-1,	-1,	-1,	-1,	39,	-1,	64,	60,	-1,	-1,	-1,	14,	59,	42,	4,	33,	-1,	-1,	46,	-1,	-1,	-1,	52,	-1,	29,	6,	24,	2,	-1,	-1,	-1,	17,	-1,	-1,	-1,	-1|
-1,	-1,	-1,	3,	-1,	45,	-1,	-1,	-1,	59,	-1,	49,	12,	-1,	-1,	50,	28,	63,	-1,	-1,	54,	37,	-1,	58,	-1,	-1,	-1,	-1,	17,	52,	36,	10,	25,	-1,	34,	-1,	-1,	46,	-1,	22,	-1,	39,	-1,	11,	31,	-1,	24,	27,	-1,	19,	-1,	48,	-1,	18,	23,	-1,	6,	4,	42,	53,	43,	-1,	14,	-1|
61,	52,	-1,	-1,	12,	-1,	-1,	24,	11,	42,	-1,	44,	64,	1,	53,	-1,	59,	-1,	31,	2,	-1,	49,	34,	51,	-1,	9,	22,	-1,	23,	-1,	48,	4,	-1,	62,	-1,	55,	57,	50,	-1,	-1,	58,	47,	10,	7,	6,	-1,	21,	41,	-1,	26,	20,	-1,	30,	-1,	-1,	45,	63,	-1,	-1,	60,	56,	-1,	40,	-1|
19,	-1,	27,	15,	4,	60,	7,	14,	-1,	36,	-1,	29,	63,	46,	-1,	-1,	38,	-1,	-1,	61,	-1,	56,	-1,	-1,	-1,	62,	-1,	49,	59,	50,	1,	-1,	43,	54,	21,	-1,	-1,	52,	42,	11,	-1,	-1,	48,	-1,	37,	-1,	53,	23,	51,	-1,	22,	-1,	31,	-1,	-1,	64,	24,	-1,	-1,	55,	41,	47,	58,	-1|
40,	48,	-1,	41,	-1,	-1,	-1,	20,	55,	39,	31,	57,	-1,	-1,	28,	-1,	24,	-1,	11,	10,	45,	47,	-1,	-1,	-1,	61,	5,	33,	42,	-1,	-1,	56,	-1,	37,	-1,	59,	-1,	9,	-1,	-1,	52,	-1,	-1,	1,	17,	-1,	-1,	-1,	53,	-1,	25,	8,	63,	-1,	34,	-1,	-1,	-1,	-1,	-1,	-1,	23,	-1,	-1|
-1,	-1,	-1,	1,	54,	-1,	-1,	-1,	59,	25,	-1,	-1,	34,	-1,	22,	-1,	58,	-1,	3,	35,	-1,	4,	-1,	-1,	5,	-1,	-1,	52,	-1,	19,	-1,	-1,	-1,	-1,	31,	-1,	9,	-1,	12,	-1,	10,	13,	41,	-1,	26,	33,	-1,	-1,	24,	-1,	64,	45,	-1,	40,	-1,	44,	51,	62,	-1,	-1,	61,	-1,	43,	49|
27,	33,	6,	-1,	-1,	-1,	31,	-1,	60,	10,	16,	-1,	8,	-1,	-1,	-1,	-1,	-1,	20,	-1,	-1,	24,	-1,	-1,	25,	-1,	9,	50,	46,	45,	-1,	61,	-1,	-1,	43,	51,	38,	3,	4,	18,	-1,	-1,	-1,	22,	-1,	-1,	-1,	12,	47,	-1,	53,	-1,	32,	48,	63,	-1,	-1,	28,	59,	-1,	21,	-1,	37,	-1|
29,	-1,	60,	20,	46,	23,	10,	13,	28,	14,	35,	61,	-1,	36,	-1,	64,	-1,	44,	34,	-1,	-1,	31,	43,	-1,	-1,	63,	-1,	-1,	-1,	32,	-1,	-1,	7,	-1,	-1,	-1,	-1,	-1,	-1,	58,	-1,	24,	-1,	25,	-1,	51,	6,	52,	2,	-1,	-1,	5,	-1,	16,	-1,	-1,	-1,	-1,	-1,	56,	22,	8,	41,	-1|
41,	39,	-1,	-1,	-1,	-1,	-1,	58,	-1,	-1,	48,	13,	5,	6,	-1,	20,	-1,	-1,	27,	-1,	-1,	38,	-1,	-1,	-1,	34,	-1,	53,	10,	-1,	-1,	40,	45,	46,	-1,	-1,	-1,	-1,	49,	15,	42,	-1,	-1,	64,	55,	-1,	28,	-1,	-1,	-1,	3,	-1,	8,	36,	-1,	17,	-1,	-1,	44,	-1,	24,	50,	-1,	-1|
-1,	24,	12,	14,	3,	51,	45,	-1,	19,	-1,	18,	-1,	-1,	-1,	-1,	-1,	-1,	8,	-1,	47,	-1,	64,	40,	9,	22,	35,	58,	-1,	-1,	-1,	-1,	-1,	-1,	11,	10,	13,	-1,	55,	-1,	-1,	-1,	-1,	-1,	-1,	-1,	62,	56,	-1,	54,	38,	60,	59,	7,	-1,	1,	-1,	-1,	-1,	-1,	4,	-1,	25,	33,	2|
-1,	-1,	64,	34,	26,	-1,	36,	4,	-1,	43,	7,	-1,	-1,	-1,	23,	-1,	-1,	-1,	45,	-1,	-1,	22,	-1,	-1,	18,	-1,	24,	1,	-1,	56,	42,	13,	-1,	-1,	33,	20,	-1,	-1,	-1,	17,	-1,	32,	-1,	-1,	-1,	-1,	-1,	-1,	-1,	-1,	14,	-1,	12,	30,	25,	-1,	-1,	-1,	6,	-1,	38,	57,	-1,	-1|
50,	-1,	-1,	-1,	-1,	-1,	-1,	-1,	24,	12,	56,	31,	39,	37,	29,	-1,	-1,	-1,	-1,	-1,	2,	-1,	-1,	-1,	48,	54,	57,	51,	7,	38,	-1,	36,	34,	-1,	-1,	-1,	47,	25,	-1,	-1,	-1,	-1,	-1,	21,	-1,	14,	61,	-1,	13,	49,	35,	-1,	58,	-1,	-1,	26,	20,	5,	9,	-1,	16,	27,	-1,	-1|
11,	2,	5,	-1,	-1,	19,	-1,	52,	33,	-1,	3,	-1,	17,	45,	51,	-1,	-1,	29,	50,	53,	-1,	-1,	-1,	15,	-1,	-1,	-1,	59,	6,	12,	64,	8,	14,	57,	62,	-1,	37,	22,	24,	-1,	-1,	20,	63,	-1,	54,	-1,	60,	-1,	31,	-1,	23,	-1,	4,	-1,	-1,	-1,	-1,	-1,	7,	-1,	34,	58,	13,	32|
-1,	14,	-1,	35,	-1,	-1,	-1,	-1,	-1,	26,	-1,	-1,	-1,	-1,	10,	59,	20,	45,	-1,	12,	-1,	-1,	38,	1,	7,	8,	37,	-1,	-1,	-1,	3,	-1,	-1,	53,	-1,	-1,	-1,	-1,	-1,	-1,	-1,	-1,	24,	-1,	-1,	58,	43,	-1,	42,	63,	29,	-1,	-1,	-1,	19,	-1,	34,	-1,	-1,	-1,	9,	44,	61,	-1|
-1,	-1,	31,	47,	64,	-1,	58,	22,	12,	-1,	8,	20,	-1,	14,	-1,	-1,	3,	10,	53,	-1,	-1,	29,	-1,	-1,	50,	-1,	41,	13,	-1,	17,	-1,	-1,	-1,	32,	35,	-1,	46,	42,	43,	28,	-1,	45,	-1,	39,	25,	-1,	-1,	21,	5,	-1,	55,	-1,	36,	-1,	38,	-1,	-1,	6,	15,	-1,	37,	18,	-1,	-1|
-1,	-1,	8,	21,	-1,	-1,	-1,	36,	44,	51,	-1,	-1,	52,	-1,	43,	48,	13,	9,	-1,	-1,	-1,	-1,	17,	18,	-1,	-1,	-1,	35,	31,	-1,	-1,	42,	59,	-1,	-1,	10,	-1,	24,	41,	-1,	55,	28,	34,	-1,	-1,	-1,	-1,	-1,	-1,	-1,	-1,	-1,	-1,	-1,	11,	-1,	-1,	25,	-1,	-1,	19,	3,	-1,	33|
-1,	-1,	-1,	-1,	51,	16,	-1,	55,	46,	18,	39,	-1,	-1,	58,	47,	24,	-1,	40,	63,	23,	-1,	2,	-1,	-1,	-1,	-1,	56,	-1,	22,	43,	10,	44,	21,	45,	61,	-1,	31,	-1,	8,	49,	20,	-1,	-1,	14,	50,	-1,	-1,	-1,	32,	-1,	15,	-1,	57,	37,	17,	7,	-1,	53,	-1,	-1,	-1,	13,	-1,	-1|
53,	11,	41,	26,	-1,	-1,	30,	-1,	31,	-1,	-1,	-1,	-1,	23,	-1,	-1,	64,	-1,	42,	-1,	57,	-1,	-1,	-1,	4,	5,	-1,	-1,	-1,	-1,	-1,	-1,	16,	25,	-1,	-1,	-1,	-1,	-1,	-1,	-1,	-1,	-1,	-1,	-1,	-1,	40,	15,	21,	-1,	18,	27,	-1,	43,	20,	-1,	-1,	38,	-1,	-1,	-1,	55,	51,	14|
43,	44,	-1,	-1,	-1,	5,	27,	-1,	36,	55,	13,	2,	-1,	63,	61,	35,	32,	11,	62,	15,	-1,	30,	21,	25,	60,	-1,	23,	6,	12,	9,	14,	-1,	-1,	4,	-1,	-1,	-1,	20,	-1,	34,	-1,	64,	-1,	-1,	-1,	48,	42,	38,	45,	28,	46,	26,	-1,	-1,	-1,	59,	52,	-1,	-1,	54,	50,	-1,	24,	-1|
-1,	42,	23,	29,	24,	-1,	-1,	1,	-1,	-1,	64,	9,	40,	-1,	15,	25,	60,	-1,	14,	-1,	-1,	59,	41,	-1,	45,	-1,	36,	-1,	26,	-1,	-1,	51,	62,	2,	17,	-1,	55,	-1,	-1,	44,	-1,	22,	13,	37,	8,	-1,	27,	33,	-1,	-1,	10,	-1,	-1,	34,	-1,	6,	21,	46,	20,	-1,	-1,	30,	57,	7|
20,	56,	17,	-1,	-1,	-1,	34,	-1,	4,	-1,	-1,	54,	21,	-1,	38,	42,	51,	35,	28,	16,	50,	-1,	-1,	55,	15,	-1,	33,	-1,	-1,	39,	29,	58,	-1,	12,	30,	-1,	-1,	26,	7,	1,	-1,	62,	-1,	-1,	41,	-1,	32,	-1,	-1,	53,	2,	-1,	24,	31,	13,	-1,	-1,	-1,	-1,	-1,	-1,	-1,	-1,	22|
3,	-1,	-1,	-1,	19,	31,	-1,	43,	42,	-1,	-1,	-1,	-1,	2,	-1,	-1,	40,	-1,	-1,	14,	-1,	-1,	-1,	-1,	-1,	-1,	-1,	8,	-1,	-1,	30,	34,	15,	16,	56,	52,	-1,	-1,	59,	-1,	1,	-1,	61,	13,	7,	-1,	54,	-1,	49,	-1,	-1,	-1,	9,	41,	-1,	-1,	-1,	24,	-1,	-1,	-1,	-1,	-1,	27|
-1,	-1,	32,	10,	-1,	39,	-1,	59,	61,	38,	-1,	-1,	-1,	9,	58,	-1,	29,	-1,	-1,	48,	11,	51,	16,	-1,	43,	-1,	15,	21,	45,	33,	56,	-1,	-1,	-1,	2,	62,	18,	-1,	-1,	-1,	-1,	25,	17,	-1,	53,	26,	34,	36,	-1,	-1,	4,	-1,	6,	-1,	-1,	-1,	3,	37,	-1,	-1,	-1,	40,	-1,	-1|
-1,	15,	-1,	2,	37,	-1,	63,	-1,	62,	34,	59,	-1,	45,	-1,	-1,	13,	-1,	49,	9,	7,	6,	25,	4,	-1,	44,	-1,	52,	47,	-1,	11,	22,	5,	40,	-1,	-1,	17,	-1,	-1,	-1,	-1,	-1,	-1,	-1,	18,	51,	-1,	33,	16,	23,	-1,	-1,	-1,	26,	-1,	43,	-1,	-1,	-1,	-1,	-1,	35,	21,	-1,	38|
58,	46,	-1,	45,	29,	-1,	52,	-1,	-1,	-1,	41,	-1,	15,	-1,	3,	-1,	-1,	-1,	-1,	-1,	-1,	-1,	59,	35,	12,	-1,	16,	40,	27,	-1,	18,	-1,	55,	-1,	47,	-1,	50,	48,	23,	-1,	6,	14,	-1,	30,	-1,	-1,	44,	-1,	-1,	-1,	-1,	56,	-1,	61,	-1,	-1,	-1,	-1,	-1,	-1,	-1,	-1,	53,	-1|
-1,	55,	40,	50,	41,	44,	13,	56,	-1,	-1,	12,	-1,	-1,	18,	30,	36,	-1,	33,	38,	-1,	-1,	-1,	-1,	-1,	-1,	-1,	-1,	-1,	-1,	23,	-1,	7,	37,	9,	6,	-1,	-1,	14,	-1,	-1,	46,	58,	-1,	-1,	20,	22,	-1,	3,	35,	15,	34,	63,	-1,	21,	53,	10,	-1,	-1,	25,	5,	-1,	29,	-1,	28|
22,	-1,	34,	-1,	-1,	24,	33,	47,	-1,	32,	43,	-1,	20,	-1,	-1,	-1,	-1,	-1,	57,	-1,	-1,	58,	-1,	-1,	51,	-1,	-1,	61,	-1,	-1,	-1,	-1,	13,	-1,	-1,	49,	11,	10,	-1,	45,	-1,	23,	-1,	12,	-1,	50,	62,	-1,	-1,	14,	-1,	19,	-1,	-1,	-1,	-1,	-1,	9,	46,	-1,	-1,	26,	-1,	6|
23,	62,	53,	6,	9,	-1,	-1,	57,	-1,	-1,	-1,	17,	-1,	16,	-1,	-1,	19,	41,	-1,	-1,	-1,	-1,	2,	-1,	-1,	-1,	-1,	-1,	25,	58,	55,	24,	3,	61,	-1,	-1,	34,	38,	46,	-1,	-1,	63,	-1,	40,	35,	47,	11,	-1,	-1,	-1,	-1,	30,	22,	20,	-1,	12,	-1,	44,	-1,	48,	39,	-1,	-1,	-1|
16,	35,	11,	54,	21,	18,	8,	-1,	-1,	27,	-1,	-1,	-1,	48,	-1,	-1,	-1,	64,	-1,	20,	-1,	-1,	61,	12,	32,	53,	1,	10,	-1,	6,	-1,	-1,	-1,	44,	39,	-1,	22,	-1,	-1,	-1,	-1,	-1,	60,	-1,	45,	37,	31,	9,	25,	2,	40,	-1,	62,	59,	47,	-1,	49,	-1,	-1,	-1,	-1,	34,	56,	17|
33,	-1,	-1,	-1,	-1,	-1,	-1,	17,	-1,	53,	38,	-1,	-1,	-1,	46,	-1,	6,	-1,	-1,	34,	-1,	-1,	-1,	26,	24,	23,	-1,	-1,	13,	-1,	-1,	18,	42,	-1,	-1,	-1,	-1,	-1,	58,	51,	-1,	-1,	45,	28,	27,	30,	-1,	-1,	62,	-1,	9,	-1,	19,	-1,	55,	-1,	-1,	21,	16,	-1,	-1,	-1,	22,	-1|
1,	21,	-1,	59,	-1,	-1,	32,	-1,	-1,	-1,	51,	-1,	37,	3,	9,	15,	39,	-1,	-1,	-1,	-1,	-1,	-1,	-1,	-1,	22,	55,	-1,	33,	31,	-1,	-1,	10,	-1,	14,	-1,	-1,	-1,	-1,	13,	-1,	-1,	7,	50,	56,	-1,	-1,	19,	63,	-1,	61,	-1,	25,	-1,	-1,	-1,	58,	-1,	-1,	46,	-1,	28,	-1,	-1|
-1,	34,	38,	49,	-1,	-1,	-1,	-1,	20,	-1,	30,	-1,	-1,	31,	-1,	29,	-1,	27,	18,	-1,	7,	-1,	52,	17,	58,	43,	-1,	-1,	48,	-1,	-1,	15,	54,	22,	9,	45,	56,	1,	-1,	26,	-1,	44,	-1,	-1,	4,	-1,	51,	-1,	10,	37,	-1,	46,	-1,	-1,	-1,	-1,	14,	61,	-1,	59,	-1,	-1,	64,	-1|
-1,	27,	16,	11,	35,	-1,	-1,	-1,	43,	50,	-1,	62,	13,	-1,	-1,	21,	-1,	-1,	10,	-1,	-1,	45,	31,	-1,	-1,	17,	19,	36,	-1,	-1,	40,	26,	46,	-1,	-1,	-1,	-1,	37,	-1,	39,	-1,	48,	9,	-1,	-1,	15,	-1,	57,	6,	32,	-1,	7,	56,	-1,	-1,	-1,	-1,	30,	24,	49,	25,	5,	-1,	-1|
24,	-1,	14,	-1,	48,	36,	39,	45,	26,	-1,	4,	-1,	55,	-1,	18,	-1,	16,	2,	5,	-1,	-1,	3,	46,	-1,	64,	-1,	-1,	-1,	9,	-1,	51,	49,	-1,	30,	-1,	-1,	-1,	-1,	-1,	-1,	43,	11,	-1,	59,	-1,	-1,	-1,	-1,	-1,	20,	-1,	34,	52,	29,	-1,	27,	-1,	-1,	-1,	-1,	62,	7,	-1,	54|
10,	64,	4,	28,	-1,	7,	-1,	3,	39,	-1,	47,	6,	-1,	-1,	-1,	-1,	-1,	-1,	22,	-1,	-1,	-1,	-1,	21,	-1,	-1,	44,	54,	-1,	-1,	-1,	2,	11,	24,	50,	-1,	60,	-1,	-1,	29,	-1,	46,	35,	62,	-1,	-1,	38,	34,	58,	8,	43,	-1,	45,	23,	-1,	49,	-1,	-1,	51,	20,	13,	-1,	48,	-1|
2,	-1,	50,	-1,	15,	-1,	-1,	-1,	17,	-1,	-1,	32,	60,	-1,	-1,	63,	-1,	-1,	-1,	43,	-1,	33,	1,	40,	30,	59,	-1,	-1,	-1,	53,	45,	46,	49,	-1,	48,	-1,	-1,	64,	-1,	7,	-1,	-1,	14,	52,	-1,	25,	-1,	-1,	16,	-1,	28,	-1,	42,	-1,	-1,	11,	-1,	27,	-1,	12,	-1,	-1,	-1,	10|
51,	-1,	-1,	5,	42,	-1,	-1,	54,	2,	-1,	36,	10,	-1,	19,	-1,	-1,	-1,	14,	49,	-1,	64,	13,	57,	37,	62,	-1,	-1,	-1,	-1,	-1,	7,	39,	-1,	38,	-1,	-1,	43,	-1,	-1,	8,	60,	26,	-1,	-1,	-1,	-1,	29,	-1,	30,	-1,	17,	21,	15,	-1,	18,	53,	-1,	34,	45,	-1,	1,	4,	63,	-1|];
