sudoku-ls/benchmarks_LEQ/INST_64x64/50/inst64x64_50_77.txt
8
1
13	-1	-1	27	-1	14	-1	19	-1	52	-1	-1	42	-1	-1	45	-1	56	-1	40	46	-1	18	-1	38	-1	-1	29	8	54	-1	57	-1	-1	-1	-1	-1	11	34	-1	-1	-1	15	48	21	60	1	-1	-1	-1	-1	-1	49	-1	-1	9	7	-1	-1	36	-1	-1	28	25
-1	49	25	-1	7	1	-1	32	-1	-1	-1	14	-1	-1	27	-1	22	26	-1	28	39	36	-1	50	-1	20	-1	-1	4	42	11	6	-1	52	-1	31	-1	59	-1	24	-1	-1	44	-1	-1	-1	-1	62	57	-1	-1	17	55	47	-1	54	-1	-1	34	63	-1	60	-1	-1
47	-1	-1	51	-1	40	56	28	-1	-1	58	-1	-1	-1	54	41	2	-1	25	-1	-1	-1	-1	-1	31	64	45	19	14	36	23	63	32	21	-1	-1	-1	33	-1	46	-1	61	50	-1	3	-1	55	42	-1	34	6	20	-1	-1	-1	43	44	-1	-1	52	12	-1	27	-1
-1	-1	-1	-1	-1	-1	11	42	-1	8	28	30	-1	-1	49	-1	43	-1	-1	-1	20	-1	-1	-1	-1	24	-1	34	44	46	-1	55	36	-1	25	19	1	-1	57	-1	5	12	-1	35	29	-1	26	63	40	58	50	18	33	-1	-1	-1	56	-1	48	-1	-1	-1	9	-1
-1	10	-1	43	-1	-1	-1	-1	51	-1	-1	36	-1	56	19	-1	-1	-1	6	-1	-1	-1	47	-1	40	-1	-1	58	1	18	5	-1	-1	-1	12	50	44	-1	-1	-1	-1	37	33	-1	-1	-1	-1	13	7	31	-1	-1	14	2	-1	63	46	42	-1	61	-1	-1	23	30
63	12	-1	17	-1	8	-1	30	35	-1	-1	47	10	-1	-1	-1	-1	-1	1	-1	-1	41	7	-1	56	26	-1	-1	21	15	-1	-1	2	18	-1	-1	28	-1	-1	-1	14	-1	-1	36	-1	34	25	31	4	23	48	42	-1	45	46	-1	-1	59	55	-1	29	16	-1	-1
-1	9	39	-1	22	41	-1	26	-1	3	55	48	59	34	31	-1	-1	-1	-1	-1	44	35	42	-1	27	25	-1	-1	52	-1	-1	12	-1	-1	-1	-1	-1	-1	-1	38	-1	54	-1	-1	-1	-1	-1	45	-1	-1	-1	60	28	1	-1	19	-1	-1	4	6	53	49	-1	-1
-1	-1	24	31	33	-1	-1	29	-1	-1	-1	12	-1	-1	6	-1	-1	52	-1	63	-1	34	55	8	10	-1	13	41	35	-1	49	-1	61	-1	-1	58	-1	17	-1	9	57	-1	27	56	46	-1	-1	30	36	16	26	-1	-1	5	15	-1	-1	-1	11	-1	14	-1	50	-1
-1	51	10	-1	-1	-1	-1	11	-1	62	14	-1	4	-1	-1	30	12	-1	32	46	-1	-1	-1	60	28	49	35	-1	-1	-1	-1	47	-1	33	1	6	-1	-1	-1	37	-1	-1	-1	45	-1	-1	8	61	59	-1	44	29	-1	-1	-1	21	27	-1	38	9	-1	2	-1	26
37	36	63	39	-1	-1	14	-1	15	31	17	-1	16	47	45	-1	-1	5	29	54	-1	6	27	23	13	32	26	9	-1	-1	-1	41	-1	-1	-1	48	21	-1	-1	-1	-1	-1	-1	-1	-1	7	-1	-1	-1	-1	-1	24	-1	19	42	-1	-1	-1	49	33	20	52	44	-1
45	-1	-1	-1	47	53	-1	50	-1	7	-1	19	-1	11	-1	54	-1	39	37	51	8	-1	3	-1	23	-1	46	-1	-1	1	-1	59	27	10	-1	36	58	34	-1	43	41	-1	26	9	44	38	-1	-1	-1	60	-1	-1	2	55	49	56	4	-1	40	-1	5	32	-1	-1
25	-1	-1	-1	2	52	-1	41	22	63	27	-1	-1	-1	36	51	-1	34	7	-1	40	-1	14	4	-1	-1	18	-1	-1	64	50	37	24	-1	-1	35	-1	32	-1	47	13	56	12	-1	30	42	-1	17	33	48	-1	6	-1	8	-1	23	-1	43	-1	21	-1	15	1	59
-1	40	-1	-1	-1	6	-1	21	-1	29	-1	-1	-1	55	-1	-1	-1	-1	59	-1	-1	17	56	16	-1	-1	48	-1	43	8	-1	25	19	49	44	41	-1	-1	63	2	11	-1	-1	46	33	-1	22	60	-1	-1	27	-1	51	-1	39	37	-1	-1	14	-1	-1	-1	36	50
-1	-1	-1	-1	38	28	-1	-1	57	40	1	-1	56	-1	42	-1	41	53	-1	-1	9	21	45	10	-1	-1	-1	-1	-1	-1	24	-1	-1	-1	20	22	-1	61	-1	-1	23	43	-1	34	32	-1	39	14	50	35	-1	-1	-1	12	54	4	-1	-1	-1	58	-1	-1	-1	-1
-1	-1	30	60	17	32	-1	44	-1	-1	-1	37	-1	12	2	-1	33	-1	-1	-1	-1	19	-1	-1	36	27	29	56	39	-1	-1	-1	-1	14	42	-1	51	-1	-1	-1	24	4	-1	6	-1	3	-1	1	-1	61	-1	-1	18	26	-1	-1	-1	-1	28	-1	-1	-1	16	-1
8	-1	-1	13	-1	-1	4	33	-1	-1	-1	43	-1	21	-1	-1	-1	55	36	-1	-1	63	62	-1	-1	14	40	38	2	-1	-1	17	31	-1	-1	-1	53	-1	-1	-1	37	35	-1	47	49	59	5	-1	-1	64	57	10	46	-1	-1	-1	-1	-1	-1	-1	60	39	45	-1
57	-1	47	42	-1	29	-1	23	56	-1	-1	-1	-1	-1	13	3	-1	-1	46	59	62	14	-1	33	63	-1	4	44	-1	48	60	19	64	-1	-1	-1	24	51	-1	31	34	53	25	27	-1	-1	17	22	43	6	-1	12	-1	10	-1	41	-1	-1	-1	-1	26	-1	-1	52
-1	61	-1	-1	-1	-1	-1	6	63	64	53	18	1	17	57	-1	-1	43	52	3	21	39	22	2	26	-1	14	-1	-1	-1	-1	11	-1	7	-1	-1	-1	-1	-1	-1	-1	-1	55	-1	10	-1	59	32	56	-1	-1	36	-1	62	-1	16	42	-1	-1	-1	-1	-1	20	-1
59	-1	-1	-1	16	-1	-1	-1	10	2	24	21	33	4	-1	31	-1	15	-1	17	32	-1	51	-1	6	40	42	28	56	-1	-1	-1	-1	39	23	46	-1	-1	44	-1	-1	30	37	57	-1	-1	-1	58	-1	-1	-1	-1	-1	-1	-1	-1	50	-1	62	8	7	-1	-1	-1
-1	-1	45	-1	58	3	22	7	-1	6	-1	52	-1	28	34	-1	-1	57	-1	-1	-1	-1	36	-1	-1	33	64	-1	61	-1	9	-1	47	-1	37	21	-1	53	62	-1	-1	-1	-1	-1	43	-1	12	-1	48	-1	-1	39	59	-1	14	-1	11	15	-1	-1	-1	63	-1	-1
-1	-1	51	53	52	10	26	-1	23	47	49	38	-1	-1	44	19	63	-1	-1	-1	5	-1	58	28	-1	-1	-1	7	-1	-1	12	-1	9	-1	11	-1	-1	-1	-1	25	54	-1	-1	31	14	21	64	18	55	-1	37	32	-1	-1	60	-1	29	45	61	27	46	48	59	24
14	-1	-1	55	-1	49	-1	12	58	48	22	-1	50	-1	20	27	10	1	35	-1	42	53	-1	-1	-1	41	-1	43	62	-1	-1	-1	4	26	-1	-1	-1	15	-1	-1	63	-1	5	-1	47	44	9	-1	19	18	21	3	40	52	29	-1	-1	36	-1	13	-1	17	-1	-1
-1	1	62	24	-1	34	-1	31	29	-1	-1	5	-1	39	-1	55	-1	20	48	11	56	-1	-1	47	52	-1	-1	-1	53	35	-1	-1	-1	-1	-1	14	-1	-1	-1	-1	7	-1	28	42	36	-1	4	6	64	25	30	-1	13	63	2	-1	22	-1	23	-1	44	37	-1	-1
-1	30	15	-1	-1	-1	-1	-1	-1	-1	45	25	-1	59	-1	12	31	-1	64	-1	34	-1	-1	-1	-1	21	-1	2	-1	13	47	22	29	-1	-1	54	63	28	-1	-1	62	1	-1	-1	-1	39	-1	20	11	-1	8	9	-1	-1	57	-1	-1	58	33	-1	40	-1	-1	-1
-1	23	59	-1	-1	47	-1	16	-1	21	-1	-1	-1	-1	-1	-1	8	-1	44	36	29	40	20	-1	14	-1	-1	-1	-1	57	38	53	6	-1	-1	61	45	-1	-1	-1	26	-1	-1	-1	-1	-1	-1	43	-1	9	56	-1	39	11	-1	46	1	48	-1	10	-1	-1	-1	37
39	-1	21	8	10	-1	-1	5	48	-1	25	3	9	52	62	-1	23	-1	43	27	-1	-1	53	22	37	6	47	-1	-1	-1	-1	-1	-1	-1	-1	56	-1	41	-1	-1	30	-1	51	2	-1	28	-1	40	-1	-1	42	-1	-1	7	-1	-1	33	12	18	44	-1	-1	-1	-1
-1	-1	28	-1	1	-1	-1	-1	-1	5	-1	-1	32	20	56	-1	48	21	-1	4	41	-1	60	-1	-1	46	-1	39	-1	-1	-1	30	23	51	-1	18	-1	12	47	-1	38	-1	-1	16	15	-1	14	-1	3	-1	-1	49	43	-1	-1	-1	-1	26	27	-1	2	-1	-1	9
54	63	9	-1	31	56	-1	53	8	-1	-1	27	-1	10	-1	-1	-1	7	-1	-1	30	-1	-1	32	21	-1	11	15	3	34	41	-1	-1	-1	64	-1	48	40	-1	14	59	42	-1	33	-1	-1	-1	-1	-1	47	-1	44	-1	6	-1	2	28	-1	57	17	51	45	5	61
-1	57	44	-1	32	-1	-1	-1	-1	59	40	49	-1	-1	60	-1	28	63	-1	-1	54	-1	-1	-1	-1	-1	20	-1	-1	-1	-1	-1	25	1	34	-1	30	46	33	22	-1	39	-1	-1	-1	61	-1	27	15	-1	-1	-1	-1	-1	23	13	-1	4	-1	53	-1	-1	-1	-1
61	-1	-1	36	-1	17	43	24	-1	42	-1	44	64	1	53	14	59	18	31	2	15	49	-1	51	-1	-1	22	-1	-1	-1	-1	-1	-1	62	-1	-1	57	-1	29	-1	58	47	-1	-1	6	-1	21	-1	-1	26	-1	37	-1	-1	5	45	-1	13	3	60	56	46	-1	39
19	18	27	-1	-1	-1	7	14	34	36	26	-1	-1	-1	-1	-1	-1	-1	-1	-1	-1	-1	13	6	-1	62	-1	-1	59	-1	-1	-1	43	54	-1	44	5	52	-1	11	9	3	-1	20	37	-1	53	-1	51	-1	-1	-1	-1	-1	10	-1	-1	-1	-1	55	-1	47	-1	-1
-1	-1	-1	-1	6	30	46	-1	55	39	-1	57	58	43	-1	-1	24	-1	-1	10	45	47	-1	3	19	-1	5	33	-1	51	44	56	-1	37	-1	59	2	9	-1	32	52	-1	29	-1	17	-1	-1	64	-1	-1	-1	8	63	-1	34	36	-1	-1	-1	16	49	-1	-1	-1
-1	38	18	1	-1	-1	-1	37	59	-1	-1	46	34	-1	-1	47	-1	48	3	-1	17	4	32	-1	-1	-1	-1	-1	55	19	39	14	-1	-1	31	28	-1	23	-1	21	10	-1	41	-1	26	33	-1	-1	-1	-1	64	45	20	40	-1	44	-1	62	-1	11	-1	36	43	49
27	33	6	-1	49	-1	-1	-1	-1	10	-1	58	8	-1	-1	44	-1	36	-1	13	23	-1	-1	7	25	11	9	50	46	45	-1	61	5	41	-1	-1	-1	3	4	-1	-1	-1	30	-1	-1	40	15	-1	47	-1	-1	-1	-1	48	63	-1	-1	28	59	-1	-1	-1	-1	-1
-1	-1	-1	-1	46	-1	-1	-1	28	-1	-1	61	38	36	4	-1	-1	44	34	-1	-1	31	43	57	-1	-1	49	17	-1	-1	-1	-1	7	48	53	42	40	30	54	-1	45	-1	1	25	-1	-1	6	-1	2	-1	19	-1	27	-1	-1	-1	12	55	39	56	-1	8	41	-1
41	39	57	25	-1	-1	-1	-1	-1	-1	48	-1	5	-1	63	20	56	12	27	-1	1	38	-1	-1	-1	-1	60	53	10	4	43	-1	45	-1	26	29	32	-1	-1	-1	42	-1	11	64	55	31	28	7	-1	-1	-1	-1	-1	36	-1	17	23	14	-1	30	-1	50	-1	-1
-1	24	12	14	3	51	-1	63	19	-1	-1	-1	30	50	32	-1	61	-1	21	47	49	64	-1	-1	-1	35	58	-1	-1	-1	-1	-1	-1	-1	-1	-1	-1	-1	-1	36	-1	-1	16	43	-1	62	56	48	54	38	-1	59	-1	-1	1	-1	15	-1	-1	4	-1	25	-1	-1
-1	-1	-1	-1	26	-1	36	4	-1	-1	7	-1	-1	15	23	49	-1	51	-1	52	63	22	11	39	-1	16	24	1	41	-1	-1	13	50	35	-1	-1	8	-1	-1	-1	47	-1	3	-1	59	-1	58	-1	9	10	14	-1	12	30	25	29	54	-1	-1	31	38	57	46	48
-1	32	22	30	8	-1	-1	-1	24	12	-1	-1	39	37	-1	11	-1	60	55	-1	-1	10	28	-1	-1	54	57	-1	-1	38	-1	-1	-1	-1	19	-1	-1	25	-1	63	4	-1	-1	-1	-1	14	61	53	-1	49	35	43	58	-1	33	-1	20	5	9	3	16	27	-1	45
11	-1	-1	48	43	19	28	-1	-1	-1	-1	55	17	45	51	1	46	-1	-1	-1	16	-1	25	-1	-1	44	30	-1	-1	12	-1	-1	14	57	-1	-1	-1	-1	-1	-1	36	20	63	38	54	-1	-1	35	31	41	-1	61	-1	56	21	-1	26	-1	7	-1	34	58	-1	-1
28	-1	-1	35	57	13	-1	-1	-1	26	-1	56	-1	33	10	59	-1	45	47	12	-1	54	38	1	-1	8	-1	-1	49	21	3	32	-1	53	36	-1	-1	-1	-1	-1	51	52	-1	-1	-1	-1	-1	-1	-1	-1	-1	50	16	-1	-1	22	-1	31	17	64	-1	-1	-1	-1
-1	-1	31	47	64	-1	58	22	12	60	-1	-1	-1	-1	7	34	-1	10	53	-1	-1	29	24	-1	50	-1	41	13	-1	17	-1	27	51	32	-1	-1	46	42	-1	28	-1	-1	-1	39	-1	16	30	-1	-1	-1	55	-1	36	-1	38	61	48	-1	-1	26	37	-1	-1	56
-1	-1	8	21	45	61	37	-1	44	-1	-1	50	-1	5	-1	48	-1	9	-1	22	27	7	17	18	20	-1	53	-1	-1	40	-1	42	-1	15	58	-1	-1	24	-1	-1	55	28	-1	63	-1	4	-1	-1	39	1	49	64	-1	-1	11	-1	16	25	-1	-1	19	3	2	33
-1	-1	19	-1	-1	16	-1	-1	-1	18	-1	28	11	-1	47	-1	-1	-1	-1	23	26	-1	-1	-1	34	-1	56	25	-1	43	-1	-1	21	-1	-1	64	31	54	8	-1	20	9	59	14	50	1	35	-1	32	-1	-1	52	57	37	-1	7	-1	53	-1	42	-1	-1	12	-1
-1	11	-1	26	50	-1	30	-1	-1	-1	-1	22	-1	-1	-1	32	64	46	-1	-1	57	-1	37	-1	4	-1	-1	-1	-1	59	-1	62	16	-1	-1	-1	33	6	19	-1	-1	-1	49	54	-1	-1	40	-1	21	-1	18	27	-1	43	20	-1	35	38	-1	-1	63	55	51	14
43	44	-1	33	-1	-1	27	-1	36	-1	13	2	19	63	-1	-1	-1	11	-1	15	58	-1	-1	25	-1	57	-1	6	-1	9	-1	16	22	-1	-1	37	-1	-1	-1	34	-1	64	-1	-1	18	-1	-1	-1	45	-1	46	-1	-1	51	41	-1	52	40	-1	54	-1	10	-1	-1
-1	42	-1	-1	-1	-1	-1	-1	53	16	-1	9	40	-1	15	25	60	-1	14	-1	-1	59	41	43	-1	48	36	-1	26	-1	-1	-1	62	2	-1	38	55	-1	-1	44	3	22	13	-1	8	-1	-1	-1	-1	-1	10	-1	35	34	56	-1	-1	46	-1	-1	-1	-1	-1	7
-1	56	17	-1	-1	9	34	-1	4	45	37	54	21	27	38	-1	51	35	-1	16	-1	8	5	55	-1	-1	33	18	64	39	-1	58	57	-1	30	-1	-1	-1	7	1	-1	62	-1	-1	-1	-1	32	-1	14	53	-1	-1	24	31	13	3	-1	49	60	-1	-1	43	-1	22
3	-1	36	12	19	-1	17	-1	-1	22	60	-1	-1	-1	-1	-1	40	-1	-1	14	18	-1	50	63	-1	37	39	8	38	-1	30	34	15	16	56	52	-1	-1	59	-1	-1	-1	-1	13	7	-1	-1	-1	49	-1	58	-1	-1	-1	-1	-1	32	-1	-1	51	33	20	-1	-1
-1	-1	32	-1	-1	-1	1	59	61	38	63	-1	-1	-1	-1	52	-1	22	60	48	-1	51	-1	-1	43	42	15	21	-1	33	-1	64	-1	-1	2	62	-1	-1	-1	19	-1	25	-1	-1	-1	-1	34	-1	-1	-1	4	54	6	50	-1	-1	-1	-1	-1	-1	30	-1	-1	-1
30	15	42	2	-1	-1	-1	61	-1	-1	-1	-1	45	64	24	-1	-1	-1	-1	7	6	-1	-1	-1	44	-1	-1	47	20	11	22	-1	-1	-1	-1	-1	29	58	-1	41	27	19	-1	-1	51	-1	-1	-1	23	-1	31	55	-1	39	43	32	10	-1	-1	14	-1	21	-1	-1
-1	-1	-1	45	-1	-1	-1	-1	-1	-1	41	39	15	57	-1	-1	-1	-1	54	-1	-1	-1	59	-1	-1	-1	-1	-1	-1	-1	-1	-1	-1	20	47	43	-1	-1	23	-1	6	-1	-1	-1	-1	24	-1	4	17	-1	-1	56	-1	-1	-1	60	-1	11	2	22	-1	42	-1	-1
4	-1	40	-1	41	-1	-1	-1	-1	11	12	-1	31	-1	-1	36	-1	-1	38	-1	-1	62	39	27	59	2	17	-1	-1	-1	19	7	37	9	-1	-1	-1	-1	26	-1	46	-1	52	32	-1	22	49	-1	35	-1	34	63	-1	21	-1	-1	-1	16	25	5	-1	29	47	-1
22	-1	34	-1	-1	-1	-1	47	25	32	43	-1	-1	40	-1	5	-1	-1	57	56	-1	-1	30	-1	51	4	-1	61	-1	41	-1	35	13	8	54	49	11	-1	-1	-1	-1	23	-1	12	42	-1	62	-1	52	14	-1	-1	44	27	-1	-1	59	9	-1	-1	-1	26	18	6
-1	62	53	-1	9	-1	5	57	50	-1	-1	-1	7	16	-1	28	19	-1	15	21	13	-1	-1	-1	-1	-1	54	14	25	-1	-1	24	3	61	51	-1	34	38	-1	-1	-1	-1	43	40	-1	-1	-1	59	18	29	33	-1	-1	-1	8	12	45	44	-1	48	-1	-1	60	-1
-1	35	11	-1	-1	-1	8	-1	-1	-1	46	4	-1	-1	-1	26	-1	64	24	20	3	-1	61	12	32	53	-1	10	28	6	57	50	-1	-1	-1	-1	-1	63	-1	-1	15	-1	-1	-1	-1	37	-1	-1	-1	2	40	-1	62	-1	-1	42	-1	-1	19	43	-1	34	56	-1
-1	-1	43	-1	-1	-1	-1	-1	-1	-1	38	-1	-1	-1	46	-1	6	54	41	-1	48	11	-1	-1	24	23	-1	4	-1	47	-1	18	42	-1	52	-1	59	5	58	51	-1	10	45	28	-1	-1	37	49	-1	36	9	2	-1	-1	55	-1	39	-1	-1	32	-1	35	-1	44
-1	21	-1	59	-1	-1	32	-1	-1	-1	-1	42	37	-1	9	-1	-1	23	-1	24	-1	-1	44	20	-1	-1	-1	-1	33	31	-1	-1	10	-1	14	-1	62	36	40	13	-1	-1	-1	-1	56	-1	-1	-1	63	54	-1	4	-1	38	48	47	-1	-1	43	-1	-1	28	6	53
-1	34	38	49	13	-1	-1	62	20	-1	-1	-1	24	31	8	29	55	27	-1	50	-1	-1	-1	-1	58	-1	-1	-1	-1	3	-1	15	54	-1	-1	-1	56	-1	2	-1	16	44	-1	-1	4	-1	-1	47	10	-1	39	46	41	-1	-1	5	-1	-1	36	-1	23	-1	64	19
44	-1	16	-1	-1	55	-1	8	-1	-1	52	62	13	-1	59	21	4	38	10	-1	-1	45	-1	-1	1	17	-1	36	34	61	40	26	46	63	-1	12	-1	-1	-1	-1	-1	48	-1	58	-1	15	23	57	6	32	51	-1	-1	64	3	14	2	-1	-1	49	-1	5	-1	-1
-1	-1	14	19	48	36	-1	-1	26	44	-1	-1	-1	-1	18	23	16	2	5	-1	60	3	-1	-1	64	50	28	-1	9	-1	-1	-1	53	-1	-1	25	-1	-1	-1	-1	43	11	40	59	63	-1	-1	8	22	20	-1	-1	52	-1	-1	-1	-1	41	37	-1	62	-1	-1	54
10	64	-1	28	-1	7	-1	-1	39	-1	-1	6	27	25	-1	-1	15	59	-1	-1	-1	-1	-1	21	41	-1	-1	54	-1	14	-1	-1	11	24	-1	33	-1	-1	-1	29	18	46	35	62	-1	17	-1	34	-1	-1	-1	-1	-1	23	26	49	40	-1	51	20	13	-1	-1	42
2	-1	-1	-1	-1	-1	29	-1	-1	58	-1	32	60	-1	-1	-1	-1	61	-1	43	-1	33	1	40	-1	59	-1	-1	57	53	45	-1	49	6	48	-1	4	-1	3	-1	-1	-1	-1	52	39	-1	-1	54	-1	13	-1	35	-1	24	-1	-1	8	27	31	-1	-1	-1	-1	10
-1	58	-1	5	-1	46	47	54	2	-1	36	10	48	-1	-1	-1	-1	-1	49	-1	-1	-1	-1	37	62	52	-1	-1	-1	-1	-1	39	-1	38	27	23	-1	44	35	8	60	-1	31	3	61	-1	-1	-1	30	-1	17	-1	-1	33	-1	-1	55	34	-1	50	1	4	-1	-1
64 
3 59 54 12
34 42 44 22
9 9 52 15
51 23 18 61
18 30 40 3
42 58 39 20
14 4 33 1
33 44 23 23
62 62 42 54
15 16 52 21
41 48 14 29
47 49 63 60
57 29 20 24
46 31 43 37
25 11 45 48
57 59 56 1
4 19 44 55
25 16 19 38
26 34 47 18
32 8 57 6
5 7 54 15
15 21 19 55
22 23 18 53
20 51 7 45
9 41 19 31
5 59 16 36
52 29 58 31
12 13 8 32
52 5 16 38
22 63 30 53
31 53 56 47
13 9 38 42
6 32 51 47
36 26 41 57
58 21 42 35
27 42 17 5
27 4 14 57
8 53 12 14
31 19 46 5
23 5 9 45
32 4 15 62
64 5 45 19
9 22 8 57
53 6 41 62
31 32 26 47
52 2 36 34
39 37 61 57
15 45 8 1
26 37 44 40
30 38 53 4
20 13 23 26
35 48 11 9
64 56 2 41
56 4 20 61
53 2 62 39
64 3 55 10
12 28 61 38
53 42 41 46
26 62 10 40
46 25 3 22
31 20 7 55
7 16 32 18
9 58 63 16
10 45 11 58
